43393.13,63.71,77.26
43176.23,64.03,77.65
39424.64,70.12,85.04
42775.36,64.63,78.38
44973.57,61.47,74.55
44053.6,62.76,76.1
41435.69,66.72,80.91
38337.47,72.11,87.45
44901.85,61.57,74.66
48981.23,56.44,68.45
39823.48,69.42,84.19
42263.84,65.41,79.33
39894.62,69.3,84.04
40280.35,68.63,83.23
42857.89,64.51,78.23
40286.26,68.62,83.22
44190.81,62.56,75.87
38660.27,71.51,86.72
41705.84,66.29,80.39
43292.22,63.86,77.44
